data/CVRPLIB/Vrp-Set-XML100/instances/XML100_2211_08.vrp
NAME : XML100_2211_08
COMMENT : Generated by Queiroga, Sadykov, Uchoa, and Vidal (2021)
TYPE : CVRP
DIMENSION : 101
EDGE_WEIGHT_TYPE : EUC_2D
CAPACITY : 4
NODE_COORD_SECTION
1    500  500 
2    275  275 
3    304  183 
4    122  95  
5    658  198 
6    210  72  
7    141  226 
8    729  134 
9    576  242 
10   651  224 
11   20   207 
12   480  410 
13   309  313 
14   714  231 
15   157  108 
16   688  527 
17   7    131 
18   509  303 
19   571  224 
20   278  219 
21   501  246 
22   184  99  
23   139  97  
24   53   139 
25   891  424 
26   129  149 
27   520  244 
28   594  299 
29   527  462 
30   465  357 
31   243  114 
32   537  531 
33   518  340 
34   499  483 
35   250  115 
36   606  544 
37   244  85  
38   102  160 
39   436  128 
40   587  225 
41   510  197 
42   510  441 
43   521  243 
44   257  217 
45   611  310 
46   565  220 
47   135  13  
48   528  247 
49   599  372 
50   492  287 
51   517  62  
52   58   84  
53   611  365 
54   406  379 
55   807  70  
56   133  306 
57   636  417 
58   136  59  
59   358  143 
60   280  42  
61   639  252 
62   681  336 
63   104  197 
64   195  174 
65   287  90  
66   513  362 
67   172  266 
68   280  338 
69   59   407 
70   494  613 
71   534  433 
72   569  504 
73   680  88  
74   67   54  
75   426  204 
76   684  403 
77   538  258 
78   55   469 
79   393  421 
80   140  142 
81   127  285 
82   143  151 
83   599  426 
84   572  202 
85   502  211 
86   61   161 
87   208  210 
88   433  453 
89   291  288 
90   450  385 
91   174  111 
92   603  254 
93   483  314 
94   461  288 
95   544  347 
96   139  235 
97   463  286 
98   44   153 
99   257  559 
100  554  346 
101  586  640 
DEMAND_SECTION
1    0   
2    1   
3    1   
4    1   
5    1   
6    1   
7    1   
8    1   
9    1   
10   1   
11   1   
12   1   
13   1   
14   1   
15   1   
16   1   
17   1   
18   1   
19   1   
20   1   
21   1   
22   1   
23   1   
24   1   
25   1   
26   1   
27   1   
28   1   
29   1   
30   1   
31   1   
32   1   
33   1   
34   1   
35   1   
36   1   
37   1   
38   1   
39   1   
40   1   
41   1   
42   1   
43   1   
44   1   
45   1   
46   1   
47   1   
48   1   
49   1   
50   1   
51   1   
52   1   
53   1   
54   1   
55   1   
56   1   
57   1   
58   1   
59   1   
60   1   
61   1   
62   1   
63   1   
64   1   
65   1   
66   1   
67   1   
68   1   
69   1   
70   1   
71   1   
72   1   
73   1   
74   1   
75   1   
76   1   
77   1   
78   1   
79   1   
80   1   
81   1   
82   1   
83   1   
84   1   
85   1   
86   1   
87   1   
88   1   
89   1   
90   1   
91   1   
92   1   
93   1   
94   1   
95   1   
96   1   
97   1   
98   1   
99   1   
100  1   
101  1   
DEPOT_SECTION
1
-1
EOF
