data/CVRPLIB/Vrp-Set-XML100/solutions/XML100_2211_08.sol
Route #1: 58 64 59 36
Route #2: 69 100 35 31
Route #3: 56 75 24 15
Route #4: 92 96 93 29
Route #5: 67 88 12 53
Route #6: 74 38 50 40
Route #7: 39 83 45 18
Route #8: 21 90 14 79
Route #9: 5 46 57 22
Route #10: 65 32 94 99
Route #11: 60 9 13 61
Route #12: 80 95 6 66
Route #13: 28 70 41 33
Route #14: 76 47 42 26
Route #15: 55 68 77 98
Route #16: 2 19 43 1
Route #17: 34 30 63 86
Route #18: 81 25 37 62
Route #19: 10 16 97 85
Route #20: 87 78 89 11
Route #21: 7 54 72 4
Route #22: 23 51 73 3
Route #23: 48 52 82 71
Route #24: 44 27 91 8
Route #25: 49 20 84 17
Cost 19495
